
        $ From http://www.csplib.org/Problems/prob009/data/helmut.pdf
        $ Problem number 101
        $ Sequence length : 25
        language ESSENCE' 1.0
        letting sizemaster be 344
        letting sizes be sequence(2,3,8,11,14,17,19,21,23,25,27,36,39,44,48,53,56,71,77,83,86,89,98,169,175)
        